c NeuroCodeBench 2.0 CNF formula with verdict Unsat
p cnf 27 81
1 -5 -20 -8 13 19 -18 21 0
1 5 10 3 17 -21 0
1 5 10 3 -17 -20 22 -24 0
-1 -6 7 -27 18 23 0
1 -5 20 24 -23 3 -6 0
1 5 10 3 17 21 18 0
1 -5 20 -24 22 19 -14 0
1 5 -10 12 -14 21 11 -8 16 0
-1 -6 7 -27 18 -23 -16 0
-1 -6 7 27 -26 0
1 -5 -20 -8 -13 -6 26 0
-1 -6 7 -27 -18 0
1 -5 -20 -8 13 -19 -4 -10 0
1 5 -10 12 -14 -21 -19 20 0
1 -5 -20 -8 -13 6 3 23 17 -2 0
-1 6 4 -12 26 -27 0
1 -5 -20 8 -22 2 27 0
1 -5 -20 8 22 -2 -15 0
1 5 -10 12 -14 21 11 -8 -16 0
1 -5 20 -24 22 -19 -12 0
1 5 10 3 -17 20 -25 -26 13 22 0
1 -5 -20 -8 13 -19 4 -27 23 16 0
-1 -6 7 -27 18 -23 16 0
1 -5 -20 -8 13 -19 4 27 -24 -14 -17 7 0
1 5 10 3 -17 20 -25 26 0
-1 6 4 12 -9 -20 0
1 -5 20 24 -23 -3 14 0
1 5 10 3 -17 20 -25 -26 -13 0
-1 -6 -7 -4 26 0
1 -5 -20 -8 13 -19 4 -27 23 -16 0
1 -5 -20 -8 -13 6 3 23 -17 -18 0
-1 -6 7 27 26 0
1 -5 -20 -8 13 -19 4 27 -24 -14 -17 -7 0
1 5 -10 12 -14 21 -11 0
1 -5 -20 -8 -13 6 -3 0
1 5 10 -3 -27 13 0
1 5 -10 12 -14 -21 19 0
1 5 10 3 -17 -20 -22 0
1 -5 -20 -8 13 -19 4 27 -24 -14 17 -3 0
1 -5 -20 -8 13 19 -18 -21 0
-1 6 4 -12 26 27 0
-1 -6 -7 -4 -26 -8 0
1 -5 -20 -8 13 -19 -4 10 0
-1 6 4 12 9 0
1 5 10 3 -17 20 25 0
1 -5 -20 -8 13 -19 4 27 -24 14 0
1 -5 -20 -8 -13 6 3 23 17 2 0
1 -5 -20 -8 13 19 18 0
1 5 10 3 -17 20 -25 -26 13 -22 0
-1 6 -4 0
1 -5 20 24 23 0
1 -5 20 24 -23 -3 -14 0
1 -5 -20 8 22 2 0
1 -5 -20 8 -22 -2 6 0
1 -5 -20 -8 -13 -6 -26 0
-1 6 4 -12 -26 0
1 5 10 -3 27 0
1 -5 -20 -8 -13 6 3 23 -17 18 0
1 5 -10 12 -14 -21 -19 -20 0
1 -5 -20 -8 -13 6 3 -23 0
-1 -6 -7 -4 -26 8 0
-1 -6 -7 4 0
1 -5 20 -24 22 -19 12 0
1 5 -10 -12 14 24 0
1 5 10 3 17 21 -18 0
1 -5 20 -24 22 19 14 0
1 -5 20 -24 -22 0
-1 6 4 12 -9 20 0
1 5 10 -3 -27 -13 0
1 -5 20 24 -23 3 6 0
1 5 10 3 -17 -20 22 24 0
1 -5 -20 8 -22 -2 -6 0
1 5 -10 12 -14 21 11 8 0
1 -5 -20 8 -22 2 -27 0
1 5 -10 -12 -14 0
1 5 -10 -12 14 -24 0
1 5 -10 12 14 0
1 -5 -20 -8 13 -19 4 27 -24 -14 17 3 0
1 -5 -20 -8 13 -19 4 27 24 0
1 -5 -20 8 22 -2 15 0
1 -5 -20 -8 13 -19 4 -27 -23 0
